scripts/L1data/localhap/group1.lp
\Problem name: 

Minimize
obj: x27 + x29 + x31 + x33 + x34 + x35 + x36 + x37 + x38 + x39
 + x40 + x41 + x42 + x43 + x44 + x45 + x46 + x47 + x48 + x49
 + x50 + x51 + x52 + x53 + x54 + x55 + x56 + x57 + x58 + x59
 + x60 + x61 + x62 + x63 + x64 + x65 + x66 + x67 + x68 + x69
 + x70
Subject To
cons0:  30 x0 + x43 >= 30
cons1:  30 x0 - x43 <= 30
cons2:  x0 - x9 - x12 - x17 - x25 = 0
cons3:  x0 - x11 - x16 = 0
cons4:  30 x1 + x44 >= 30
cons5:  30 x1 - x44 <= 30
cons6:  x1 - x16 = 0
cons7:  x1 - x10 - x17 = 0
cons8:  30 x2 + x45 >= 30
cons9:  30 x2 - x45 <= 30
cons10:  x2 - x14 - x20 = 0
cons11:  x2 - x18 = 0
cons12:  30 x3 + x46 >= 30
cons13:  30 x3 - x46 <= 30
cons14:  x3 - x11 - x18 = 0
cons15:  x3 - x13 - x19 = 0
cons16:  30 x4 + x47 >= 30
cons17:  30 x4 - x47 <= 30
cons18:  x4 - x19 = 0
cons19:  x4 - x12 - x20 = 0
cons20:  30 x5 + x48 >= 30
cons21:  30 x5 - x48 <= 30
cons22:  x5 - x10 - x24 = 0
cons23:  x5 - x9 - x21 = 0
cons24:  30 x6 + x49 >= 30
cons25:  30 x6 - x49 <= 30
cons26:  x6 - x15 - x21 = 0
cons27:  x6 - x22 = 0
cons28:  30 x7 + x50 >= 30
cons29:  30 x7 - x50 <= 30
cons30:  x7 - x13 - x22 = 0
cons31:  x7 - x15 - x23 = 0
cons32:  30 x8 + x51 >= 30
cons33:  30 x8 - x51 <= 30
cons34:  x8 - x23 = 0
cons35:  x8 - x14 - x24 - x25 = 0
cons36:  30 x9 -30.05000 x26 + x52 >= 0
cons37:  30 x9 -30.05000 x26 - x52 <= 0
cons38:  x9 -999999 x26 <= 0
cons39:  x9 - x26 >= 0
cons40:  30 x10 -30.05000 x27 + x53 >= 0
cons41:  30 x10 -30.05000 x27 - x53 <= 0
cons42:  x10 -999999 x27 <= 0
cons43:  x10 - x27 >= 0
cons44:  30 x11 -30.05000 x28 + x54 >= 0
cons45:  30 x11 -30.05000 x28 - x54 <= 0
cons46:  x11 -999999 x28 <= 0
cons47:  x11 - x28 >= 0
cons48:  30 x12 -30.05000 x29 + x55 >= 0
cons49:  30 x12 -30.05000 x29 - x55 <= 0
cons50:  x12 -999999 x29 <= 0
cons51:  x12 - x29 >= 0
cons52:  30 x13 -30.05000 x30 + x56 >= 0
cons53:  30 x13 -30.05000 x30 - x56 <= 0
cons54:  x13 -999999 x30 <= 0
cons55:  x13 - x30 >= 0
cons56:  30 x14 -30.05000 x31 + x57 >= 0
cons57:  30 x14 -30.05000 x31 - x57 <= 0
cons58:  x14 -999999 x31 <= 0
cons59:  x14 - x31 >= 0
cons60:  30 x15 -30.05000 x32 + x58 >= 0
cons61:  30 x15 -30.05000 x32 - x58 <= 0
cons62:  x15 -999999 x32 <= 0
cons63:  x15 - x32 >= 0
cons64:  30 x16 -30.05000 x33 + x59 >= 0
cons65:  30 x16 -30.05000 x33 - x59 <= 0
cons66:  x16 -999999 x33 <= 0
cons67:  x16 - x33 >= 0
cons68:  30 x17 -30.05000 x34 + x60 >= 0
cons69:  30 x17 -30.05000 x34 - x60 <= 0
cons70:  x17 -999999 x34 <= 0
cons71:  x17 - x34 >= 0
cons72:  30 x18 -30.05000 x35 + x61 >= 0
cons73:  30 x18 -30.05000 x35 - x61 <= 0
cons74:  x18 -999999 x35 <= 0
cons75:  x18 - x35 >= 0
cons76:  30 x19 -30.05000 x36 + x62 >= 0
cons77:  30 x19 -30.05000 x36 - x62 <= 0
cons78:  x19 -999999 x36 <= 0
cons79:  x19 - x36 >= 0
cons80:  30 x20 -30.05000 x37 + x63 >= 0
cons81:  30 x20 -30.05000 x37 - x63 <= 0
cons82:  x20 -999999 x37 <= 0
cons83:  x20 - x37 >= 0
cons84:  30 x21 -30.05000 x38 + x64 >= 0
cons85:  30 x21 -30.05000 x38 - x64 <= 0
cons86:  x21 -999999 x38 <= 0
cons87:  x21 - x38 >= 0
cons88:  30 x22 -30.05000 x39 + x65 >= 0
cons89:  30 x22 -30.05000 x39 - x65 <= 0
cons90:  x22 -999999 x39 <= 0
cons91:  x22 - x39 >= 0
cons92:  30 x23 -30.05000 x40 + x66 >= 0
cons93:  30 x23 -30.05000 x40 - x66 <= 0
cons94:  x23 -999999 x40 <= 0
cons95:  x23 - x40 >= 0
cons96:  30 x24 -30.05000 x41 + x67 >= 0
cons97:  30 x24 -30.05000 x41 - x67 <= 0
cons98:  x24 -999999 x41 <= 0
cons99:  x24 - x41 >= 0
cons100:  30 x25 -30.05000 x42 + x68 >= 0
cons101:  30 x25 -30.05000 x42 - x68 <= 0
cons102:  x25 -999999 x42 <= 0
cons103:  x25 - x42 >= 0
cons104:  x0 - x69 = 1
cons105:  x8 - x70 = 1
Bounds
 1 <= x0
 1 <= x1
 1 <= x2
 1 <= x3
 1 <= x4
 1 <= x5
 1 <= x6
 1 <= x7
 1 <= x8
 1 <= x26 <= 1
 0 <= x27 <= 1
 1 <= x28 <= 1
 0 <= x29 <= 1
 1 <= x30 <= 1
 0 <= x31 <= 1
 1 <= x32 <= 1
 0 <= x33 <= 1
 0 <= x34 <= 1
 0 <= x35 <= 1
 0 <= x36 <= 1
 0 <= x37 <= 1
 0 <= x38 <= 1
 0 <= x39 <= 1
 0 <= x40 <= 1
 0 <= x41 <= 1
 0 <= x42 <= 1
Integers
x0 x1 x2 x3 x4 x5 x6 x7 x8 x9 
x10 x11 x12 x13 x14 x15 x16 x17 x18 x19 
x20 x21 x22 x23 x24 x25 x26 x27 x28 x29 
x30 x31 x32 x33 x34 x35 x36 x37 x38 x39 
x40 x41 x42 
End
