scripts/L1data/localhap/group1.lp.sol
Optimal - objective value 99.60000000
      0 x27                    1                   31.05
      1 x29                    1                   31.05
      2 x31                    1                   31.05
      3 x33                    1                   31.05
      5 x35                    1                   31.05
      6 x36                    1                   31.05
      9 x39                    1                   31.05
     10 x40                    1                   31.05
     13 x43                   30                       0
     16 x46                   30                       0
     20 x50                   30                       0
     22 x52                 0.05                       0
     23 x53                 0.05                       0
     24 x54                 0.05                       0
     25 x55                 0.05                       0
     26 x56                 0.05                       0
     27 x57                 0.05                       0
     28 x58                 0.05                       0
     29 x59                 0.05                       0
     31 x61                 0.05                       0
     32 x62                 0.05                       0
     35 x65                 0.05                       0
     36 x66                 0.05                       0
     39 x69                    1                       0
     41 x0                     2                      31
     42 x9                     1                     -30
     43 x12                    1                     -30
     46 x11                    1                     -30
     47 x16                    1                     -30
     48 x1                     1                       0
     49 x10                    1                     -30
     50 x2                     1                       0
     51 x14                    1                     -30
     53 x18                    1                     -30
     54 x3                     2                      30
     55 x13                    1                     -30
     56 x19                    1                     -30
     57 x4                     1                       0
     58 x5                     1                       0
     61 x6                     1                       0
     62 x15                    1                     -30
     63 x22                    1                     -30
     64 x7                     2                      30
     65 x23                    1                     -30
     66 x8                     1                       0
     67 x26                    1                   30.05
     68 x28                    1                   30.05
     69 x30                    1                   30.05
     70 x32                    1                   30.05
